\* NXP_trial_v3 *\
Minimize
OBJ: 615.6 order_fulfill_o_t_0_10 + 1094.4 order_fulfill_o_t_0_11
 + 1710 order_fulfill_o_t_0_12 + 2462.4 order_fulfill_o_t_0_13
 + 3351.6 order_fulfill_o_t_0_14 + 4377.6 order_fulfill_o_t_0_15
 + 5540.4 order_fulfill_o_t_0_16 + 6840 order_fulfill_o_t_0_17
 + 8276.4 order_fulfill_o_t_0_18 + 9849.6 order_fulfill_o_t_0_19
 + 68.4 order_fulfill_o_t_0_8 + 273.6 order_fulfill_o_t_0_9
 + 24 order_fulfill_o_t_1_11 + 96 order_fulfill_o_t_1_12
 + 216 order_fulfill_o_t_1_13 + 384 order_fulfill_o_t_1_14
 + 600 order_fulfill_o_t_1_15 + 864 order_fulfill_o_t_1_16
 + 1176 order_fulfill_o_t_1_17 + 1536 order_fulfill_o_t_1_18
 + 1944 order_fulfill_o_t_1_19 + 28 order_fulfill_o_t_2_12
 + 112 order_fulfill_o_t_2_13 + 252 order_fulfill_o_t_2_14
 + 448 order_fulfill_o_t_2_15 + 700 order_fulfill_o_t_2_16
 + 1008 order_fulfill_o_t_2_17 + 1372 order_fulfill_o_t_2_18
 + 1792 order_fulfill_o_t_2_19 + 560 order_fulfill_o_t_3_10
 + 875 order_fulfill_o_t_3_11 + 1260 order_fulfill_o_t_3_12
 + 1715 order_fulfill_o_t_3_13 + 2240 order_fulfill_o_t_3_14
 + 2835 order_fulfill_o_t_3_15 + 3500 order_fulfill_o_t_3_16
 + 4235 order_fulfill_o_t_3_17 + 5040 order_fulfill_o_t_3_18
 + 5915 order_fulfill_o_t_3_19 + 35 order_fulfill_o_t_3_7
 + 140 order_fulfill_o_t_3_8 + 315 order_fulfill_o_t_3_9
 + 4838.4 order_fulfill_o_t_4_10 + 6123.6 order_fulfill_o_t_4_11
 + 7560 order_fulfill_o_t_4_12 + 9147.6 order_fulfill_o_t_4_13
 + 10886.4 order_fulfill_o_t_4_14 + 12776.4 order_fulfill_o_t_4_15
 + 14817.6 order_fulfill_o_t_4_16 + 17010 order_fulfill_o_t_4_17
 + 19353.6 order_fulfill_o_t_4_18 + 21848.4 order_fulfill_o_t_4_19
 + 75.6 order_fulfill_o_t_4_3 + 302.4 order_fulfill_o_t_4_4
 + 680.4 order_fulfill_o_t_4_5 + 1209.6 order_fulfill_o_t_4_6
 + 1890 order_fulfill_o_t_4_7 + 2721.6 order_fulfill_o_t_4_8
 + 3704.4 order_fulfill_o_t_4_9 + 50.4 order_fulfill_o_t_5_14
 + 201.6 order_fulfill_o_t_5_15 + 453.6 order_fulfill_o_t_5_16
 + 806.4 order_fulfill_o_t_5_17 + 1260 order_fulfill_o_t_5_18
 + 1814.4 order_fulfill_o_t_5_19 + 21.9 order_fulfill_o_t_6_14
 + 87.6 order_fulfill_o_t_6_15 + 197.1 order_fulfill_o_t_6_16
 + 350.4 order_fulfill_o_t_6_17 + 547.5 order_fulfill_o_t_6_18
 + 788.4 order_fulfill_o_t_6_19 + 86 order_fulfill_o_t_7_19
 + 716.8 order_fulfill_o_t_8_10 + 1120 order_fulfill_o_t_8_11
 + 1612.8 order_fulfill_o_t_8_12 + 2195.2 order_fulfill_o_t_8_13
 + 2867.2 order_fulfill_o_t_8_14 + 3628.8 order_fulfill_o_t_8_15
 + 4480 order_fulfill_o_t_8_16 + 5420.8 order_fulfill_o_t_8_17
 + 6451.2 order_fulfill_o_t_8_18 + 7571.2 order_fulfill_o_t_8_19
 + 44.8 order_fulfill_o_t_8_7 + 179.2 order_fulfill_o_t_8_8
 + 403.2 order_fulfill_o_t_8_9 + 22.5 order_fulfill_o_t_9_18
 + 90 order_fulfill_o_t_9_19
Subject To
Capacity_resource0_time0: production_p_r_t_0_0_0
 + 99999 production_p_r_t_1_0_0 + production_p_r_t_2_0_0 <= 17
Capacity_resource0_time1: production_p_r_t_0_0_1
 + 99999 production_p_r_t_1_0_1 + production_p_r_t_2_0_1 <= 17
Capacity_resource0_time10: production_p_r_t_0_0_10
 + 99999 production_p_r_t_1_0_10 + production_p_r_t_2_0_10 <= 17
Capacity_resource0_time11: production_p_r_t_0_0_11
 + 99999 production_p_r_t_1_0_11 + production_p_r_t_2_0_11 <= 17
Capacity_resource0_time12: production_p_r_t_0_0_12
 + 99999 production_p_r_t_1_0_12 + production_p_r_t_2_0_12 <= 17
Capacity_resource0_time13: production_p_r_t_0_0_13
 + 99999 production_p_r_t_1_0_13 + production_p_r_t_2_0_13 <= 17
Capacity_resource0_time14: production_p_r_t_0_0_14
 + 99999 production_p_r_t_1_0_14 + production_p_r_t_2_0_14 <= 17
Capacity_resource0_time15: production_p_r_t_0_0_15
 + 99999 production_p_r_t_1_0_15 + production_p_r_t_2_0_15 <= 17
Capacity_resource0_time16: production_p_r_t_0_0_16
 + 99999 production_p_r_t_1_0_16 + production_p_r_t_2_0_16 <= 17
Capacity_resource0_time17: production_p_r_t_0_0_17
 + 99999 production_p_r_t_1_0_17 + production_p_r_t_2_0_17 <= 17
Capacity_resource0_time18: production_p_r_t_0_0_18
 + 99999 production_p_r_t_1_0_18 + production_p_r_t_2_0_18 <= 17
Capacity_resource0_time19: production_p_r_t_0_0_19
 + 99999 production_p_r_t_1_0_19 + production_p_r_t_2_0_19 <= 17
Capacity_resource0_time2: production_p_r_t_0_0_2
 + 99999 production_p_r_t_1_0_2 + production_p_r_t_2_0_2 <= 17
Capacity_resource0_time3: production_p_r_t_0_0_3
 + 99999 production_p_r_t_1_0_3 + production_p_r_t_2_0_3 <= 17
Capacity_resource0_time4: production_p_r_t_0_0_4
 + 99999 production_p_r_t_1_0_4 + production_p_r_t_2_0_4 <= 17
Capacity_resource0_time5: production_p_r_t_0_0_5
 + 99999 production_p_r_t_1_0_5 + production_p_r_t_2_0_5 <= 17
Capacity_resource0_time6: production_p_r_t_0_0_6
 + 99999 production_p_r_t_1_0_6 + production_p_r_t_2_0_6 <= 17
Capacity_resource0_time7: production_p_r_t_0_0_7
 + 99999 production_p_r_t_1_0_7 + production_p_r_t_2_0_7 <= 17
Capacity_resource0_time8: production_p_r_t_0_0_8
 + 99999 production_p_r_t_1_0_8 + production_p_r_t_2_0_8 <= 17
Capacity_resource0_time9: production_p_r_t_0_0_9
 + 99999 production_p_r_t_1_0_9 + production_p_r_t_2_0_9 <= 17
Capacity_resource1_time0: 99999 production_p_r_t_0_1_0
 + production_p_r_t_1_1_0 + production_p_r_t_2_1_0 <= 17
Capacity_resource1_time1: 99999 production_p_r_t_0_1_1
 + production_p_r_t_1_1_1 + production_p_r_t_2_1_1 <= 17
Capacity_resource1_time10: 99999 production_p_r_t_0_1_10
 + production_p_r_t_1_1_10 + production_p_r_t_2_1_10 <= 17
Capacity_resource1_time11: 99999 production_p_r_t_0_1_11
 + production_p_r_t_1_1_11 + production_p_r_t_2_1_11 <= 17
Capacity_resource1_time12: 99999 production_p_r_t_0_1_12
 + production_p_r_t_1_1_12 + production_p_r_t_2_1_12 <= 17
Capacity_resource1_time13: 99999 production_p_r_t_0_1_13
 + production_p_r_t_1_1_13 + production_p_r_t_2_1_13 <= 17
Capacity_resource1_time14: 99999 production_p_r_t_0_1_14
 + production_p_r_t_1_1_14 + production_p_r_t_2_1_14 <= 17
Capacity_resource1_time15: 99999 production_p_r_t_0_1_15
 + production_p_r_t_1_1_15 + production_p_r_t_2_1_15 <= 17
Capacity_resource1_time16: 99999 production_p_r_t_0_1_16
 + production_p_r_t_1_1_16 + production_p_r_t_2_1_16 <= 17
Capacity_resource1_time17: 99999 production_p_r_t_0_1_17
 + production_p_r_t_1_1_17 + production_p_r_t_2_1_17 <= 17
Capacity_resource1_time18: 99999 production_p_r_t_0_1_18
 + production_p_r_t_1_1_18 + production_p_r_t_2_1_18 <= 17
Capacity_resource1_time19: 99999 production_p_r_t_0_1_19
 + production_p_r_t_1_1_19 + production_p_r_t_2_1_19 <= 17
Capacity_resource1_time2: 99999 production_p_r_t_0_1_2
 + production_p_r_t_1_1_2 + production_p_r_t_2_1_2 <= 17
Capacity_resource1_time3: 99999 production_p_r_t_0_1_3
 + production_p_r_t_1_1_3 + production_p_r_t_2_1_3 <= 17
Capacity_resource1_time4: 99999 production_p_r_t_0_1_4
 + production_p_r_t_1_1_4 + production_p_r_t_2_1_4 <= 17
Capacity_resource1_time5: 99999 production_p_r_t_0_1_5
 + production_p_r_t_1_1_5 + production_p_r_t_2_1_5 <= 17
Capacity_resource1_time6: 99999 production_p_r_t_0_1_6
 + production_p_r_t_1_1_6 + production_p_r_t_2_1_6 <= 17
Capacity_resource1_time7: 99999 production_p_r_t_0_1_7
 + production_p_r_t_1_1_7 + production_p_r_t_2_1_7 <= 17
Capacity_resource1_time8: 99999 production_p_r_t_0_1_8
 + production_p_r_t_1_1_8 + production_p_r_t_2_1_8 <= 17
Capacity_resource1_time9: 99999 production_p_r_t_0_1_9
 + production_p_r_t_1_1_9 + production_p_r_t_2_1_9 <= 17
Inventory_balance_product0_time0: - 73 order_fulfill_o_t_6_0
 - 86 order_fulfill_o_t_7_0 - 64 order_fulfill_o_t_8_0
 + production_p_r_t_0_0_0 + production_p_r_t_0_1_0
 + starting_inventory_p_t_0_0 - starting_inventory_p_t_0_1 = 0
Inventory_balance_product0_time1: - 73 order_fulfill_o_t_6_1
 - 86 order_fulfill_o_t_7_1 - 64 order_fulfill_o_t_8_1
 + production_p_r_t_0_0_1 + production_p_r_t_0_1_1
 + starting_inventory_p_t_0_1 - starting_inventory_p_t_0_2 = 0
Inventory_balance_product0_time10: - 73 order_fulfill_o_t_6_10
 - 86 order_fulfill_o_t_7_10 - 64 order_fulfill_o_t_8_10
 + production_p_r_t_0_0_10 + production_p_r_t_0_1_10
 + starting_inventory_p_t_0_10 - starting_inventory_p_t_0_11 = 0
Inventory_balance_product0_time11: - 73 order_fulfill_o_t_6_11
 - 86 order_fulfill_o_t_7_11 - 64 order_fulfill_o_t_8_11
 + production_p_r_t_0_0_11 + production_p_r_t_0_1_11
 + starting_inventory_p_t_0_11 - starting_inventory_p_t_0_12 = 0
Inventory_balance_product0_time12: - 73 order_fulfill_o_t_6_12
 - 86 order_fulfill_o_t_7_12 - 64 order_fulfill_o_t_8_12
 + production_p_r_t_0_0_12 + production_p_r_t_0_1_12
 + starting_inventory_p_t_0_12 - starting_inventory_p_t_0_13 = 0
Inventory_balance_product0_time13: - 73 order_fulfill_o_t_6_13
 - 86 order_fulfill_o_t_7_13 - 64 order_fulfill_o_t_8_13
 + production_p_r_t_0_0_13 + production_p_r_t_0_1_13
 + starting_inventory_p_t_0_13 - starting_inventory_p_t_0_14 = 0
Inventory_balance_product0_time14: - 73 order_fulfill_o_t_6_14
 - 86 order_fulfill_o_t_7_14 - 64 order_fulfill_o_t_8_14
 + production_p_r_t_0_0_14 + production_p_r_t_0_1_14
 + starting_inventory_p_t_0_14 - starting_inventory_p_t_0_15 = 0
Inventory_balance_product0_time15: - 73 order_fulfill_o_t_6_15
 - 86 order_fulfill_o_t_7_15 - 64 order_fulfill_o_t_8_15
 + production_p_r_t_0_0_15 + production_p_r_t_0_1_15
 + starting_inventory_p_t_0_15 - starting_inventory_p_t_0_16 = 0
Inventory_balance_product0_time16: - 73 order_fulfill_o_t_6_16
 - 86 order_fulfill_o_t_7_16 - 64 order_fulfill_o_t_8_16
 + production_p_r_t_0_0_16 + production_p_r_t_0_1_16
 + starting_inventory_p_t_0_16 - starting_inventory_p_t_0_17 = 0
Inventory_balance_product0_time17: - 73 order_fulfill_o_t_6_17
 - 86 order_fulfill_o_t_7_17 - 64 order_fulfill_o_t_8_17
 + production_p_r_t_0_0_17 + production_p_r_t_0_1_17
 + starting_inventory_p_t_0_17 - starting_inventory_p_t_0_18 = 0
Inventory_balance_product0_time18: - 73 order_fulfill_o_t_6_18
 - 86 order_fulfill_o_t_7_18 - 64 order_fulfill_o_t_8_18
 + production_p_r_t_0_0_18 + production_p_r_t_0_1_18
 + starting_inventory_p_t_0_18 - starting_inventory_p_t_0_19 = 0
Inventory_balance_product0_time19: - 73 order_fulfill_o_t_6_19
 - 86 order_fulfill_o_t_7_19 - 64 order_fulfill_o_t_8_19
 + production_p_r_t_0_0_19 + production_p_r_t_0_1_19
 + starting_inventory_p_t_0_19 - starting_inventory_p_t_0_20 = 0
Inventory_balance_product0_time2: - 73 order_fulfill_o_t_6_2
 - 86 order_fulfill_o_t_7_2 - 64 order_fulfill_o_t_8_2
 + production_p_r_t_0_0_2 + production_p_r_t_0_1_2
 + starting_inventory_p_t_0_2 - starting_inventory_p_t_0_3 = 0
Inventory_balance_product0_time3: - 73 order_fulfill_o_t_6_3
 - 86 order_fulfill_o_t_7_3 - 64 order_fulfill_o_t_8_3
 + production_p_r_t_0_0_3 + production_p_r_t_0_1_3
 + starting_inventory_p_t_0_3 - starting_inventory_p_t_0_4 = 0
Inventory_balance_product0_time4: - 73 order_fulfill_o_t_6_4
 - 86 order_fulfill_o_t_7_4 - 64 order_fulfill_o_t_8_4
 + production_p_r_t_0_0_4 + production_p_r_t_0_1_4
 + starting_inventory_p_t_0_4 - starting_inventory_p_t_0_5 = 0
Inventory_balance_product0_time5: - 73 order_fulfill_o_t_6_5
 - 86 order_fulfill_o_t_7_5 - 64 order_fulfill_o_t_8_5
 + production_p_r_t_0_0_5 + production_p_r_t_0_1_5
 + starting_inventory_p_t_0_5 - starting_inventory_p_t_0_6 = 0
Inventory_balance_product0_time6: - 73 order_fulfill_o_t_6_6
 - 86 order_fulfill_o_t_7_6 - 64 order_fulfill_o_t_8_6
 + production_p_r_t_0_0_6 + production_p_r_t_0_1_6
 + starting_inventory_p_t_0_6 - starting_inventory_p_t_0_7 = 0
Inventory_balance_product0_time7: - 73 order_fulfill_o_t_6_7
 - 86 order_fulfill_o_t_7_7 - 64 order_fulfill_o_t_8_7
 + production_p_r_t_0_0_7 + production_p_r_t_0_1_7
 + starting_inventory_p_t_0_7 - starting_inventory_p_t_0_8 = 0
Inventory_balance_product0_time8: - 73 order_fulfill_o_t_6_8
 - 86 order_fulfill_o_t_7_8 - 64 order_fulfill_o_t_8_8
 + production_p_r_t_0_0_8 + production_p_r_t_0_1_8
 + starting_inventory_p_t_0_8 - starting_inventory_p_t_0_9 = 0
Inventory_balance_product0_time9: - 73 order_fulfill_o_t_6_9
 - 86 order_fulfill_o_t_7_9 - 64 order_fulfill_o_t_8_9
 + production_p_r_t_0_0_9 + production_p_r_t_0_1_9
 - starting_inventory_p_t_0_10 + starting_inventory_p_t_0_9 = 0
Inventory_balance_product1_time0: - 76 order_fulfill_o_t_0_0
 - 40 order_fulfill_o_t_1_0 - 70 order_fulfill_o_t_3_0
 - 84 order_fulfill_o_t_4_0 - 45 order_fulfill_o_t_9_0
 + production_p_r_t_1_0_0 + production_p_r_t_1_1_0
 + starting_inventory_p_t_1_0 - starting_inventory_p_t_1_1 = 0
Inventory_balance_product1_time1: - 76 order_fulfill_o_t_0_1
 - 40 order_fulfill_o_t_1_1 - 70 order_fulfill_o_t_3_1
 - 84 order_fulfill_o_t_4_1 - 45 order_fulfill_o_t_9_1
 + production_p_r_t_1_0_1 + production_p_r_t_1_1_1
 + starting_inventory_p_t_1_1 - starting_inventory_p_t_1_2 = 0
Inventory_balance_product1_time10: - 76 order_fulfill_o_t_0_10
 - 40 order_fulfill_o_t_1_10 - 70 order_fulfill_o_t_3_10
 - 84 order_fulfill_o_t_4_10 - 45 order_fulfill_o_t_9_10
 + production_p_r_t_1_0_10 + production_p_r_t_1_1_10
 + starting_inventory_p_t_1_10 - starting_inventory_p_t_1_11 = 0
Inventory_balance_product1_time11: - 76 order_fulfill_o_t_0_11
 - 40 order_fulfill_o_t_1_11 - 70 order_fulfill_o_t_3_11
 - 84 order_fulfill_o_t_4_11 - 45 order_fulfill_o_t_9_11
 + production_p_r_t_1_0_11 + production_p_r_t_1_1_11
 + starting_inventory_p_t_1_11 - starting_inventory_p_t_1_12 = 0
Inventory_balance_product1_time12: - 76 order_fulfill_o_t_0_12
 - 40 order_fulfill_o_t_1_12 - 70 order_fulfill_o_t_3_12
 - 84 order_fulfill_o_t_4_12 - 45 order_fulfill_o_t_9_12
 + production_p_r_t_1_0_12 + production_p_r_t_1_1_12
 + starting_inventory_p_t_1_12 - starting_inventory_p_t_1_13 = 0
Inventory_balance_product1_time13: - 76 order_fulfill_o_t_0_13
 - 40 order_fulfill_o_t_1_13 - 70 order_fulfill_o_t_3_13
 - 84 order_fulfill_o_t_4_13 - 45 order_fulfill_o_t_9_13
 + production_p_r_t_1_0_13 + production_p_r_t_1_1_13
 + starting_inventory_p_t_1_13 - starting_inventory_p_t_1_14 = 0
Inventory_balance_product1_time14: - 76 order_fulfill_o_t_0_14
 - 40 order_fulfill_o_t_1_14 - 70 order_fulfill_o_t_3_14
 - 84 order_fulfill_o_t_4_14 - 45 order_fulfill_o_t_9_14
 + production_p_r_t_1_0_14 + production_p_r_t_1_1_14
 + starting_inventory_p_t_1_14 - starting_inventory_p_t_1_15 = 0
Inventory_balance_product1_time15: - 76 order_fulfill_o_t_0_15
 - 40 order_fulfill_o_t_1_15 - 70 order_fulfill_o_t_3_15
 - 84 order_fulfill_o_t_4_15 - 45 order_fulfill_o_t_9_15
 + production_p_r_t_1_0_15 + production_p_r_t_1_1_15
 + starting_inventory_p_t_1_15 - starting_inventory_p_t_1_16 = 0
Inventory_balance_product1_time16: - 76 order_fulfill_o_t_0_16
 - 40 order_fulfill_o_t_1_16 - 70 order_fulfill_o_t_3_16
 - 84 order_fulfill_o_t_4_16 - 45 order_fulfill_o_t_9_16
 + production_p_r_t_1_0_16 + production_p_r_t_1_1_16
 + starting_inventory_p_t_1_16 - starting_inventory_p_t_1_17 = 0
Inventory_balance_product1_time17: - 76 order_fulfill_o_t_0_17
 - 40 order_fulfill_o_t_1_17 - 70 order_fulfill_o_t_3_17
 - 84 order_fulfill_o_t_4_17 - 45 order_fulfill_o_t_9_17
 + production_p_r_t_1_0_17 + production_p_r_t_1_1_17
 + starting_inventory_p_t_1_17 - starting_inventory_p_t_1_18 = 0
Inventory_balance_product1_time18: - 76 order_fulfill_o_t_0_18
 - 40 order_fulfill_o_t_1_18 - 70 order_fulfill_o_t_3_18
 - 84 order_fulfill_o_t_4_18 - 45 order_fulfill_o_t_9_18
 + production_p_r_t_1_0_18 + production_p_r_t_1_1_18
 + starting_inventory_p_t_1_18 - starting_inventory_p_t_1_19 = 0
Inventory_balance_product1_time19: - 76 order_fulfill_o_t_0_19
 - 40 order_fulfill_o_t_1_19 - 70 order_fulfill_o_t_3_19
 - 84 order_fulfill_o_t_4_19 - 45 order_fulfill_o_t_9_19
 + production_p_r_t_1_0_19 + production_p_r_t_1_1_19
 + starting_inventory_p_t_1_19 - starting_inventory_p_t_1_20 = 0
Inventory_balance_product1_time2: - 76 order_fulfill_o_t_0_2
 - 40 order_fulfill_o_t_1_2 - 70 order_fulfill_o_t_3_2
 - 84 order_fulfill_o_t_4_2 - 45 order_fulfill_o_t_9_2
 + production_p_r_t_1_0_2 + production_p_r_t_1_1_2
 + starting_inventory_p_t_1_2 - starting_inventory_p_t_1_3 = 0
Inventory_balance_product1_time3: - 76 order_fulfill_o_t_0_3
 - 40 order_fulfill_o_t_1_3 - 70 order_fulfill_o_t_3_3
 - 84 order_fulfill_o_t_4_3 - 45 order_fulfill_o_t_9_3
 + production_p_r_t_1_0_3 + production_p_r_t_1_1_3
 + starting_inventory_p_t_1_3 - starting_inventory_p_t_1_4 = 0
Inventory_balance_product1_time4: - 76 order_fulfill_o_t_0_4
 - 40 order_fulfill_o_t_1_4 - 70 order_fulfill_o_t_3_4
 - 84 order_fulfill_o_t_4_4 - 45 order_fulfill_o_t_9_4
 + production_p_r_t_1_0_4 + production_p_r_t_1_1_4
 + starting_inventory_p_t_1_4 - starting_inventory_p_t_1_5 = 0
Inventory_balance_product1_time5: - 76 order_fulfill_o_t_0_5
 - 40 order_fulfill_o_t_1_5 - 70 order_fulfill_o_t_3_5
 - 84 order_fulfill_o_t_4_5 - 45 order_fulfill_o_t_9_5
 + production_p_r_t_1_0_5 + production_p_r_t_1_1_5
 + starting_inventory_p_t_1_5 - starting_inventory_p_t_1_6 = 0
Inventory_balance_product1_time6: - 76 order_fulfill_o_t_0_6
 - 40 order_fulfill_o_t_1_6 - 70 order_fulfill_o_t_3_6
 - 84 order_fulfill_o_t_4_6 - 45 order_fulfill_o_t_9_6
 + production_p_r_t_1_0_6 + production_p_r_t_1_1_6
 + starting_inventory_p_t_1_6 - starting_inventory_p_t_1_7 = 0
Inventory_balance_product1_time7: - 76 order_fulfill_o_t_0_7
 - 40 order_fulfill_o_t_1_7 - 70 order_fulfill_o_t_3_7
 - 84 order_fulfill_o_t_4_7 - 45 order_fulfill_o_t_9_7
 + production_p_r_t_1_0_7 + production_p_r_t_1_1_7
 + starting_inventory_p_t_1_7 - starting_inventory_p_t_1_8 = 0
Inventory_balance_product1_time8: - 76 order_fulfill_o_t_0_8
 - 40 order_fulfill_o_t_1_8 - 70 order_fulfill_o_t_3_8
 - 84 order_fulfill_o_t_4_8 - 45 order_fulfill_o_t_9_8
 + production_p_r_t_1_0_8 + production_p_r_t_1_1_8
 + starting_inventory_p_t_1_8 - starting_inventory_p_t_1_9 = 0
Inventory_balance_product1_time9: - 76 order_fulfill_o_t_0_9
 - 40 order_fulfill_o_t_1_9 - 70 order_fulfill_o_t_3_9
 - 84 order_fulfill_o_t_4_9 - 45 order_fulfill_o_t_9_9
 + production_p_r_t_1_0_9 + production_p_r_t_1_1_9
 - starting_inventory_p_t_1_10 + starting_inventory_p_t_1_9 = 0
Inventory_balance_product2_time0: - 40 order_fulfill_o_t_2_0
 - 72 order_fulfill_o_t_5_0 + production_p_r_t_2_0_0 + production_p_r_t_2_1_0
 + starting_inventory_p_t_2_0 - starting_inventory_p_t_2_1 = 0
Inventory_balance_product2_time1: - 40 order_fulfill_o_t_2_1
 - 72 order_fulfill_o_t_5_1 + production_p_r_t_2_0_1 + production_p_r_t_2_1_1
 + starting_inventory_p_t_2_1 - starting_inventory_p_t_2_2 = 0
Inventory_balance_product2_time10: - 40 order_fulfill_o_t_2_10
 - 72 order_fulfill_o_t_5_10 + production_p_r_t_2_0_10
 + production_p_r_t_2_1_10 + starting_inventory_p_t_2_10
 - starting_inventory_p_t_2_11 = 0
Inventory_balance_product2_time11: - 40 order_fulfill_o_t_2_11
 - 72 order_fulfill_o_t_5_11 + production_p_r_t_2_0_11
 + production_p_r_t_2_1_11 + starting_inventory_p_t_2_11
 - starting_inventory_p_t_2_12 = 0
Inventory_balance_product2_time12: - 40 order_fulfill_o_t_2_12
 - 72 order_fulfill_o_t_5_12 + production_p_r_t_2_0_12
 + production_p_r_t_2_1_12 + starting_inventory_p_t_2_12
 - starting_inventory_p_t_2_13 = 0
Inventory_balance_product2_time13: - 40 order_fulfill_o_t_2_13
 - 72 order_fulfill_o_t_5_13 + production_p_r_t_2_0_13
 + production_p_r_t_2_1_13 + starting_inventory_p_t_2_13
 - starting_inventory_p_t_2_14 = 0
Inventory_balance_product2_time14: - 40 order_fulfill_o_t_2_14
 - 72 order_fulfill_o_t_5_14 + production_p_r_t_2_0_14
 + production_p_r_t_2_1_14 + starting_inventory_p_t_2_14
 - starting_inventory_p_t_2_15 = 0
Inventory_balance_product2_time15: - 40 order_fulfill_o_t_2_15
 - 72 order_fulfill_o_t_5_15 + production_p_r_t_2_0_15
 + production_p_r_t_2_1_15 + starting_inventory_p_t_2_15
 - starting_inventory_p_t_2_16 = 0
Inventory_balance_product2_time16: - 40 order_fulfill_o_t_2_16
 - 72 order_fulfill_o_t_5_16 + production_p_r_t_2_0_16
 + production_p_r_t_2_1_16 + starting_inventory_p_t_2_16
 - starting_inventory_p_t_2_17 = 0
Inventory_balance_product2_time17: - 40 order_fulfill_o_t_2_17
 - 72 order_fulfill_o_t_5_17 + production_p_r_t_2_0_17
 + production_p_r_t_2_1_17 + starting_inventory_p_t_2_17
 - starting_inventory_p_t_2_18 = 0
Inventory_balance_product2_time18: - 40 order_fulfill_o_t_2_18
 - 72 order_fulfill_o_t_5_18 + production_p_r_t_2_0_18
 + production_p_r_t_2_1_18 + starting_inventory_p_t_2_18
 - starting_inventory_p_t_2_19 = 0
Inventory_balance_product2_time19: - 40 order_fulfill_o_t_2_19
 - 72 order_fulfill_o_t_5_19 + production_p_r_t_2_0_19
 + production_p_r_t_2_1_19 + starting_inventory_p_t_2_19
 - starting_inventory_p_t_2_20 = 0
Inventory_balance_product2_time2: - 40 order_fulfill_o_t_2_2
 - 72 order_fulfill_o_t_5_2 + production_p_r_t_2_0_2 + production_p_r_t_2_1_2
 + starting_inventory_p_t_2_2 - starting_inventory_p_t_2_3 = 0
Inventory_balance_product2_time3: - 40 order_fulfill_o_t_2_3
 - 72 order_fulfill_o_t_5_3 + production_p_r_t_2_0_3 + production_p_r_t_2_1_3
 + starting_inventory_p_t_2_3 - starting_inventory_p_t_2_4 = 0
Inventory_balance_product2_time4: - 40 order_fulfill_o_t_2_4
 - 72 order_fulfill_o_t_5_4 + production_p_r_t_2_0_4 + production_p_r_t_2_1_4
 + starting_inventory_p_t_2_4 - starting_inventory_p_t_2_5 = 0
Inventory_balance_product2_time5: - 40 order_fulfill_o_t_2_5
 - 72 order_fulfill_o_t_5_5 + production_p_r_t_2_0_5 + production_p_r_t_2_1_5
 + starting_inventory_p_t_2_5 - starting_inventory_p_t_2_6 = 0
Inventory_balance_product2_time6: - 40 order_fulfill_o_t_2_6
 - 72 order_fulfill_o_t_5_6 + production_p_r_t_2_0_6 + production_p_r_t_2_1_6
 + starting_inventory_p_t_2_6 - starting_inventory_p_t_2_7 = 0
Inventory_balance_product2_time7: - 40 order_fulfill_o_t_2_7
 - 72 order_fulfill_o_t_5_7 + production_p_r_t_2_0_7 + production_p_r_t_2_1_7
 + starting_inventory_p_t_2_7 - starting_inventory_p_t_2_8 = 0
Inventory_balance_product2_time8: - 40 order_fulfill_o_t_2_8
 - 72 order_fulfill_o_t_5_8 + production_p_r_t_2_0_8 + production_p_r_t_2_1_8
 + starting_inventory_p_t_2_8 - starting_inventory_p_t_2_9 = 0
Inventory_balance_product2_time9: - 40 order_fulfill_o_t_2_9
 - 72 order_fulfill_o_t_5_9 + production_p_r_t_2_0_9 + production_p_r_t_2_1_9
 - starting_inventory_p_t_2_10 + starting_inventory_p_t_2_9 = 0
Order_fulfill_order0: order_fulfill_o_t_0_0 + order_fulfill_o_t_0_1
 + order_fulfill_o_t_0_10 + order_fulfill_o_t_0_11 + order_fulfill_o_t_0_12
 + order_fulfill_o_t_0_13 + order_fulfill_o_t_0_14 + order_fulfill_o_t_0_15
 + order_fulfill_o_t_0_16 + order_fulfill_o_t_0_17 + order_fulfill_o_t_0_18
 + order_fulfill_o_t_0_19 + order_fulfill_o_t_0_2 + order_fulfill_o_t_0_3
 + order_fulfill_o_t_0_4 + order_fulfill_o_t_0_5 + order_fulfill_o_t_0_6
 + order_fulfill_o_t_0_7 + order_fulfill_o_t_0_8 + order_fulfill_o_t_0_9 = 1
Order_fulfill_order1: order_fulfill_o_t_1_0 + order_fulfill_o_t_1_1
 + order_fulfill_o_t_1_10 + order_fulfill_o_t_1_11 + order_fulfill_o_t_1_12
 + order_fulfill_o_t_1_13 + order_fulfill_o_t_1_14 + order_fulfill_o_t_1_15
 + order_fulfill_o_t_1_16 + order_fulfill_o_t_1_17 + order_fulfill_o_t_1_18
 + order_fulfill_o_t_1_19 + order_fulfill_o_t_1_2 + order_fulfill_o_t_1_3
 + order_fulfill_o_t_1_4 + order_fulfill_o_t_1_5 + order_fulfill_o_t_1_6
 + order_fulfill_o_t_1_7 + order_fulfill_o_t_1_8 + order_fulfill_o_t_1_9 = 1
Order_fulfill_order2: order_fulfill_o_t_2_0 + order_fulfill_o_t_2_1
 + order_fulfill_o_t_2_10 + order_fulfill_o_t_2_11 + order_fulfill_o_t_2_12
 + order_fulfill_o_t_2_13 + order_fulfill_o_t_2_14 + order_fulfill_o_t_2_15
 + order_fulfill_o_t_2_16 + order_fulfill_o_t_2_17 + order_fulfill_o_t_2_18
 + order_fulfill_o_t_2_19 + order_fulfill_o_t_2_2 + order_fulfill_o_t_2_3
 + order_fulfill_o_t_2_4 + order_fulfill_o_t_2_5 + order_fulfill_o_t_2_6
 + order_fulfill_o_t_2_7 + order_fulfill_o_t_2_8 + order_fulfill_o_t_2_9 = 1
Order_fulfill_order3: order_fulfill_o_t_3_0 + order_fulfill_o_t_3_1
 + order_fulfill_o_t_3_10 + order_fulfill_o_t_3_11 + order_fulfill_o_t_3_12
 + order_fulfill_o_t_3_13 + order_fulfill_o_t_3_14 + order_fulfill_o_t_3_15
 + order_fulfill_o_t_3_16 + order_fulfill_o_t_3_17 + order_fulfill_o_t_3_18
 + order_fulfill_o_t_3_19 + order_fulfill_o_t_3_2 + order_fulfill_o_t_3_3
 + order_fulfill_o_t_3_4 + order_fulfill_o_t_3_5 + order_fulfill_o_t_3_6
 + order_fulfill_o_t_3_7 + order_fulfill_o_t_3_8 + order_fulfill_o_t_3_9 = 1
Order_fulfill_order4: order_fulfill_o_t_4_0 + order_fulfill_o_t_4_1
 + order_fulfill_o_t_4_10 + order_fulfill_o_t_4_11 + order_fulfill_o_t_4_12
 + order_fulfill_o_t_4_13 + order_fulfill_o_t_4_14 + order_fulfill_o_t_4_15
 + order_fulfill_o_t_4_16 + order_fulfill_o_t_4_17 + order_fulfill_o_t_4_18
 + order_fulfill_o_t_4_19 + order_fulfill_o_t_4_2 + order_fulfill_o_t_4_3
 + order_fulfill_o_t_4_4 + order_fulfill_o_t_4_5 + order_fulfill_o_t_4_6
 + order_fulfill_o_t_4_7 + order_fulfill_o_t_4_8 + order_fulfill_o_t_4_9 = 1
Order_fulfill_order5: order_fulfill_o_t_5_0 + order_fulfill_o_t_5_1
 + order_fulfill_o_t_5_10 + order_fulfill_o_t_5_11 + order_fulfill_o_t_5_12
 + order_fulfill_o_t_5_13 + order_fulfill_o_t_5_14 + order_fulfill_o_t_5_15
 + order_fulfill_o_t_5_16 + order_fulfill_o_t_5_17 + order_fulfill_o_t_5_18
 + order_fulfill_o_t_5_19 + order_fulfill_o_t_5_2 + order_fulfill_o_t_5_3
 + order_fulfill_o_t_5_4 + order_fulfill_o_t_5_5 + order_fulfill_o_t_5_6
 + order_fulfill_o_t_5_7 + order_fulfill_o_t_5_8 + order_fulfill_o_t_5_9 = 1
Order_fulfill_order6: order_fulfill_o_t_6_0 + order_fulfill_o_t_6_1
 + order_fulfill_o_t_6_10 + order_fulfill_o_t_6_11 + order_fulfill_o_t_6_12
 + order_fulfill_o_t_6_13 + order_fulfill_o_t_6_14 + order_fulfill_o_t_6_15
 + order_fulfill_o_t_6_16 + order_fulfill_o_t_6_17 + order_fulfill_o_t_6_18
 + order_fulfill_o_t_6_19 + order_fulfill_o_t_6_2 + order_fulfill_o_t_6_3
 + order_fulfill_o_t_6_4 + order_fulfill_o_t_6_5 + order_fulfill_o_t_6_6
 + order_fulfill_o_t_6_7 + order_fulfill_o_t_6_8 + order_fulfill_o_t_6_9 = 1
Order_fulfill_order7: order_fulfill_o_t_7_0 + order_fulfill_o_t_7_1
 + order_fulfill_o_t_7_10 + order_fulfill_o_t_7_11 + order_fulfill_o_t_7_12
 + order_fulfill_o_t_7_13 + order_fulfill_o_t_7_14 + order_fulfill_o_t_7_15
 + order_fulfill_o_t_7_16 + order_fulfill_o_t_7_17 + order_fulfill_o_t_7_18
 + order_fulfill_o_t_7_19 + order_fulfill_o_t_7_2 + order_fulfill_o_t_7_3
 + order_fulfill_o_t_7_4 + order_fulfill_o_t_7_5 + order_fulfill_o_t_7_6
 + order_fulfill_o_t_7_7 + order_fulfill_o_t_7_8 + order_fulfill_o_t_7_9 = 1
Order_fulfill_order8: order_fulfill_o_t_8_0 + order_fulfill_o_t_8_1
 + order_fulfill_o_t_8_10 + order_fulfill_o_t_8_11 + order_fulfill_o_t_8_12
 + order_fulfill_o_t_8_13 + order_fulfill_o_t_8_14 + order_fulfill_o_t_8_15
 + order_fulfill_o_t_8_16 + order_fulfill_o_t_8_17 + order_fulfill_o_t_8_18
 + order_fulfill_o_t_8_19 + order_fulfill_o_t_8_2 + order_fulfill_o_t_8_3
 + order_fulfill_o_t_8_4 + order_fulfill_o_t_8_5 + order_fulfill_o_t_8_6
 + order_fulfill_o_t_8_7 + order_fulfill_o_t_8_8 + order_fulfill_o_t_8_9 = 1
Order_fulfill_order9: order_fulfill_o_t_9_0 + order_fulfill_o_t_9_1
 + order_fulfill_o_t_9_10 + order_fulfill_o_t_9_11 + order_fulfill_o_t_9_12
 + order_fulfill_o_t_9_13 + order_fulfill_o_t_9_14 + order_fulfill_o_t_9_15
 + order_fulfill_o_t_9_16 + order_fulfill_o_t_9_17 + order_fulfill_o_t_9_18
 + order_fulfill_o_t_9_19 + order_fulfill_o_t_9_2 + order_fulfill_o_t_9_3
 + order_fulfill_o_t_9_4 + order_fulfill_o_t_9_5 + order_fulfill_o_t_9_6
 + order_fulfill_o_t_9_7 + order_fulfill_o_t_9_8 + order_fulfill_o_t_9_9 = 1
initial_starting_inventory_product0: starting_inventory_p_t_0_0 <= 0
initial_starting_inventory_product1: starting_inventory_p_t_1_0 <= 0
initial_starting_inventory_product2: starting_inventory_p_t_2_0 <= 0
Bounds
 order_fulfill_o_t_0_0 <= 1
 order_fulfill_o_t_0_1 <= 1
 order_fulfill_o_t_0_10 <= 1
 order_fulfill_o_t_0_11 <= 1
 order_fulfill_o_t_0_12 <= 1
 order_fulfill_o_t_0_13 <= 1
 order_fulfill_o_t_0_14 <= 1
 order_fulfill_o_t_0_15 <= 1
 order_fulfill_o_t_0_16 <= 1
 order_fulfill_o_t_0_17 <= 1
 order_fulfill_o_t_0_18 <= 1
 order_fulfill_o_t_0_19 <= 1
 order_fulfill_o_t_0_2 <= 1
 order_fulfill_o_t_0_3 <= 1
 order_fulfill_o_t_0_4 <= 1
 order_fulfill_o_t_0_5 <= 1
 order_fulfill_o_t_0_6 <= 1
 order_fulfill_o_t_0_7 <= 1
 order_fulfill_o_t_0_8 <= 1
 order_fulfill_o_t_0_9 <= 1
 order_fulfill_o_t_1_0 <= 1
 order_fulfill_o_t_1_1 <= 1
 order_fulfill_o_t_1_10 <= 1
 order_fulfill_o_t_1_11 <= 1
 order_fulfill_o_t_1_12 <= 1
 order_fulfill_o_t_1_13 <= 1
 order_fulfill_o_t_1_14 <= 1
 order_fulfill_o_t_1_15 <= 1
 order_fulfill_o_t_1_16 <= 1
 order_fulfill_o_t_1_17 <= 1
 order_fulfill_o_t_1_18 <= 1
 order_fulfill_o_t_1_19 <= 1
 order_fulfill_o_t_1_2 <= 1
 order_fulfill_o_t_1_3 <= 1
 order_fulfill_o_t_1_4 <= 1
 order_fulfill_o_t_1_5 <= 1
 order_fulfill_o_t_1_6 <= 1
 order_fulfill_o_t_1_7 <= 1
 order_fulfill_o_t_1_8 <= 1
 order_fulfill_o_t_1_9 <= 1
 order_fulfill_o_t_2_0 <= 1
 order_fulfill_o_t_2_1 <= 1
 order_fulfill_o_t_2_10 <= 1
 order_fulfill_o_t_2_11 <= 1
 order_fulfill_o_t_2_12 <= 1
 order_fulfill_o_t_2_13 <= 1
 order_fulfill_o_t_2_14 <= 1
 order_fulfill_o_t_2_15 <= 1
 order_fulfill_o_t_2_16 <= 1
 order_fulfill_o_t_2_17 <= 1
 order_fulfill_o_t_2_18 <= 1
 order_fulfill_o_t_2_19 <= 1
 order_fulfill_o_t_2_2 <= 1
 order_fulfill_o_t_2_3 <= 1
 order_fulfill_o_t_2_4 <= 1
 order_fulfill_o_t_2_5 <= 1
 order_fulfill_o_t_2_6 <= 1
 order_fulfill_o_t_2_7 <= 1
 order_fulfill_o_t_2_8 <= 1
 order_fulfill_o_t_2_9 <= 1
 order_fulfill_o_t_3_0 <= 1
 order_fulfill_o_t_3_1 <= 1
 order_fulfill_o_t_3_10 <= 1
 order_fulfill_o_t_3_11 <= 1
 order_fulfill_o_t_3_12 <= 1
 order_fulfill_o_t_3_13 <= 1
 order_fulfill_o_t_3_14 <= 1
 order_fulfill_o_t_3_15 <= 1
 order_fulfill_o_t_3_16 <= 1
 order_fulfill_o_t_3_17 <= 1
 order_fulfill_o_t_3_18 <= 1
 order_fulfill_o_t_3_19 <= 1
 order_fulfill_o_t_3_2 <= 1
 order_fulfill_o_t_3_3 <= 1
 order_fulfill_o_t_3_4 <= 1
 order_fulfill_o_t_3_5 <= 1
 order_fulfill_o_t_3_6 <= 1
 order_fulfill_o_t_3_7 <= 1
 order_fulfill_o_t_3_8 <= 1
 order_fulfill_o_t_3_9 <= 1
 order_fulfill_o_t_4_0 <= 1
 order_fulfill_o_t_4_1 <= 1
 order_fulfill_o_t_4_10 <= 1
 order_fulfill_o_t_4_11 <= 1
 order_fulfill_o_t_4_12 <= 1
 order_fulfill_o_t_4_13 <= 1
 order_fulfill_o_t_4_14 <= 1
 order_fulfill_o_t_4_15 <= 1
 order_fulfill_o_t_4_16 <= 1
 order_fulfill_o_t_4_17 <= 1
 order_fulfill_o_t_4_18 <= 1
 order_fulfill_o_t_4_19 <= 1
 order_fulfill_o_t_4_2 <= 1
 order_fulfill_o_t_4_3 <= 1
 order_fulfill_o_t_4_4 <= 1
 order_fulfill_o_t_4_5 <= 1
 order_fulfill_o_t_4_6 <= 1
 order_fulfill_o_t_4_7 <= 1
 order_fulfill_o_t_4_8 <= 1
 order_fulfill_o_t_4_9 <= 1
 order_fulfill_o_t_5_0 <= 1
 order_fulfill_o_t_5_1 <= 1
 order_fulfill_o_t_5_10 <= 1
 order_fulfill_o_t_5_11 <= 1
 order_fulfill_o_t_5_12 <= 1
 order_fulfill_o_t_5_13 <= 1
 order_fulfill_o_t_5_14 <= 1
 order_fulfill_o_t_5_15 <= 1
 order_fulfill_o_t_5_16 <= 1
 order_fulfill_o_t_5_17 <= 1
 order_fulfill_o_t_5_18 <= 1
 order_fulfill_o_t_5_19 <= 1
 order_fulfill_o_t_5_2 <= 1
 order_fulfill_o_t_5_3 <= 1
 order_fulfill_o_t_5_4 <= 1
 order_fulfill_o_t_5_5 <= 1
 order_fulfill_o_t_5_6 <= 1
 order_fulfill_o_t_5_7 <= 1
 order_fulfill_o_t_5_8 <= 1
 order_fulfill_o_t_5_9 <= 1
 order_fulfill_o_t_6_0 <= 1
 order_fulfill_o_t_6_1 <= 1
 order_fulfill_o_t_6_10 <= 1
 order_fulfill_o_t_6_11 <= 1
 order_fulfill_o_t_6_12 <= 1
 order_fulfill_o_t_6_13 <= 1
 order_fulfill_o_t_6_14 <= 1
 order_fulfill_o_t_6_15 <= 1
 order_fulfill_o_t_6_16 <= 1
 order_fulfill_o_t_6_17 <= 1
 order_fulfill_o_t_6_18 <= 1
 order_fulfill_o_t_6_19 <= 1
 order_fulfill_o_t_6_2 <= 1
 order_fulfill_o_t_6_3 <= 1
 order_fulfill_o_t_6_4 <= 1
 order_fulfill_o_t_6_5 <= 1
 order_fulfill_o_t_6_6 <= 1
 order_fulfill_o_t_6_7 <= 1
 order_fulfill_o_t_6_8 <= 1
 order_fulfill_o_t_6_9 <= 1
 order_fulfill_o_t_7_0 <= 1
 order_fulfill_o_t_7_1 <= 1
 order_fulfill_o_t_7_10 <= 1
 order_fulfill_o_t_7_11 <= 1
 order_fulfill_o_t_7_12 <= 1
 order_fulfill_o_t_7_13 <= 1
 order_fulfill_o_t_7_14 <= 1
 order_fulfill_o_t_7_15 <= 1
 order_fulfill_o_t_7_16 <= 1
 order_fulfill_o_t_7_17 <= 1
 order_fulfill_o_t_7_18 <= 1
 order_fulfill_o_t_7_19 <= 1
 order_fulfill_o_t_7_2 <= 1
 order_fulfill_o_t_7_3 <= 1
 order_fulfill_o_t_7_4 <= 1
 order_fulfill_o_t_7_5 <= 1
 order_fulfill_o_t_7_6 <= 1
 order_fulfill_o_t_7_7 <= 1
 order_fulfill_o_t_7_8 <= 1
 order_fulfill_o_t_7_9 <= 1
 order_fulfill_o_t_8_0 <= 1
 order_fulfill_o_t_8_1 <= 1
 order_fulfill_o_t_8_10 <= 1
 order_fulfill_o_t_8_11 <= 1
 order_fulfill_o_t_8_12 <= 1
 order_fulfill_o_t_8_13 <= 1
 order_fulfill_o_t_8_14 <= 1
 order_fulfill_o_t_8_15 <= 1
 order_fulfill_o_t_8_16 <= 1
 order_fulfill_o_t_8_17 <= 1
 order_fulfill_o_t_8_18 <= 1
 order_fulfill_o_t_8_19 <= 1
 order_fulfill_o_t_8_2 <= 1
 order_fulfill_o_t_8_3 <= 1
 order_fulfill_o_t_8_4 <= 1
 order_fulfill_o_t_8_5 <= 1
 order_fulfill_o_t_8_6 <= 1
 order_fulfill_o_t_8_7 <= 1
 order_fulfill_o_t_8_8 <= 1
 order_fulfill_o_t_8_9 <= 1
 order_fulfill_o_t_9_0 <= 1
 order_fulfill_o_t_9_1 <= 1
 order_fulfill_o_t_9_10 <= 1
 order_fulfill_o_t_9_11 <= 1
 order_fulfill_o_t_9_12 <= 1
 order_fulfill_o_t_9_13 <= 1
 order_fulfill_o_t_9_14 <= 1
 order_fulfill_o_t_9_15 <= 1
 order_fulfill_o_t_9_16 <= 1
 order_fulfill_o_t_9_17 <= 1
 order_fulfill_o_t_9_18 <= 1
 order_fulfill_o_t_9_19 <= 1
 order_fulfill_o_t_9_2 <= 1
 order_fulfill_o_t_9_3 <= 1
 order_fulfill_o_t_9_4 <= 1
 order_fulfill_o_t_9_5 <= 1
 order_fulfill_o_t_9_6 <= 1
 order_fulfill_o_t_9_7 <= 1
 order_fulfill_o_t_9_8 <= 1
 order_fulfill_o_t_9_9 <= 1
End
